Gurobi 12.0.3:   lim:time = 14400
  mip:bestbound = 1
Set parameter LogToConsole to value 1
  tech:outlev = 1
Set parameter InfUnbdInfo to value 1
Gurobi Optimizer version 12.0.3 build v12.0.3rc0 (win64 - Windows 10.0 (19045.2))

CPU model: 11th Gen Intel(R) Core(TM) i7-11700 @ 2.50GHz, instruction set [SSE2|AVX|AVX2|AVX512]
Thread count: 8 physical cores, 16 logical processors, using up to 16 threads

Non-default parameters:
TimeLimit  14400
InfUnbdInfo  1

Optimize a model with 327 rows, 558 columns and 2814 nonzeros
Model fingerprint: 0x57175526
Model has 2 quadratic objective terms
Model has 5 quadratic constraints
Variable types: 30 continuous, 528 integer (0 binary)
Coefficient statistics:
  Matrix range     [1e+00, 1e+05]
  QMatrix range    [1e+00, 1e+00]
  QLMatrix range   [1e+00, 2e+01]
  Objective range  [5e+00, 1e+02]
  QObjective range [1e+00, 1e+00]
  Bounds range     [1e+00, 1e+02]
  RHS range        [1e+00, 1e+05]
  QRHS range       [1e+02, 1e+02]
Presolve removed 30 rows and 35 columns
Presolve time: 0.02s
Presolved: 616 rows, 801 columns, 4017 nonzeros
Variable types: 90 continuous, 711 integer (710 binary)
Found heuristic solution: objective 593.3100000

Root relaxation: objective 1.172657e+02, 58 iterations, 0.00 seconds (0.00 work units)

    Nodes    |    Current Node    |     Objective Bounds      |     Work
 Expl Unexpl |  Obj  Depth IntInf | Incumbent    BestBd   Gap | It/Node Time

     0     0  117.26572    0   20  593.31000  117.26572  80.2%     -    0s
H    0     0                     542.0800000  117.26572  78.4%     -    0s
     0     0  199.89749    0   27  542.08000  199.89749  63.1%     -    0s
H    0     0                     502.1100000  199.89749  60.2%     -    0s
     0     0  234.74333    0   22  502.11000  234.74333  53.2%     -    0s
     0     0  242.73208    0   26  502.11000  242.73208  51.7%     -    0s
H    0     0                     369.2300000  242.73208  34.3%     -    0s
     0     0  253.02692    0   34  369.23000  253.02692  31.5%     -    0s
     0     0  253.16308    0   31  369.23000  253.16308  31.4%     -    0s
     0     0  256.50000    0   25  369.23000  256.50000  30.5%     -    0s
     0     0  256.50000    0   25  369.23000  256.50000  30.5%     -    0s
H    0     0                     305.7800000  256.50000  16.1%     -    0s
     0     0  256.50000    0   25  305.78000  256.50000  16.1%     -    0s
     0     0  256.50000    0   24  305.78000  256.50000  16.1%     -    0s
     0     2  256.63500    0   20  305.78000  256.63500  16.1%     -    0s
H   31    63                     297.5800000  265.39000  10.8%  23.8    0s
*   82    93              13     296.7100000  265.39000  10.6%  16.7    0s
H  138    98                     296.6600000  265.39000  10.5%  14.2    0s
*  224   117              10     296.4000000  267.74000  9.67%  12.8    0s

Cutting planes:
  Learned: 11
  Gomory: 8
  Cover: 8
  Implied bound: 7
  MIR: 5
  Flow cover: 9
  Inf proof: 14
  RLT: 12
  Relax-and-lift: 5

Explored 1246 nodes (13044 simplex iterations) in 0.57 seconds (0.33 work units)
Thread count was 16 (of 16 available processors)

Solution count 9: 296.4 296.66 296.71 ... 593.31

Optimal solution found (tolerance 1.00e-04)
Best objective 2.964000000000e+02, best bound 2.964000000000e+02, gap 0.0000%

AMPL MP initial flat model has 558 variables (0 integer, 528 binary);
Objectives: 1 quadratic; 
Constraints:  327 linear; 5 quadratic;

AMPL MP final model has 558 variables (0 integer, 528 binary);
Objectives: 1 quadratic; 
Constraints:  327 linear; 5 quadratic;


-----RESULTS INFO-----
running_time:  0.61
TC.best_bound:  296.4
TC:  296.4
MIP Gap (%):  0
=== Vehicle Routes ===
Vehicle 1: 0 → 4
Vehicle 1: 1 → 2
Vehicle 1: 2 → 3
Vehicle 1: 3 → 9
Vehicle 1: 4 → 11
Vehicle 1: 9 → 18
Vehicle 1: 11 → 1
Vehicle 2: 0 → 18
Vehicle 3: 0 → 18

=== Full Vehicle Routes ===
Vehicle 1: 0 → 4 → 11 → 1 → 2 → 3 → 9 → 0 (83<100)
Vehicle 2: 0 → 0 (0<100)
Vehicle 3: 0 → 0 (0<100)
Arc used by MRT line: y variables:
MRT used: 9 → 10
Customer assigment to PL: u variables:
5 9
6 11
7 9
8 10
Node is served by regular vehicle: g variables:
1
2
3
4
9
11
Customer assigment to Home delivery: gm variables:
1
2
3
4
Node total demands: ntd variables:
1 4 1
2 24 1
3 7 1
4 12 1
7 0 0
8 0 0
15 0 0
16 0 0
17 0 0
9 12 1
10 0 0
11 24 1
12 0 0
13 0 0
14 0 0
Customer's demand delivered to PL: l variables:
5
6
7
8
Lockers load <= capacity:
0 <= 86
0 <= 73
0 <= 80
11 <= 75
1 <= 88
24 <= 71
0 <= 70
0 <= 99
0 <= 97
